Ga  P 
 1.0000000000000000
     9.8167799999999996    0.0000000000000000    0.0000000000000000
     0.0000000000000000    4.9083899999999998    0.0000000000000000
     0.0000000000000000    0.0000000000000000    4.9083899999999998
 Ga  P  
   8   8
Cartesian
  4.3302798257999999  3.0323542580999998  1.8760357419000000
  3.0323051741999998  1.8760357419000000  4.3302307419000003
  1.8759866579999998  4.3302307419000003  3.0323542580999998
  0.5782083420000000  0.5781592581000000  0.5781592581000000
  9.2386698257999988  3.0323542580999998  1.8760357419000000
  7.9407933419999992  1.8760357419000000  4.3302307419000003
  6.7843766580000002  4.3302307419000003  3.0323542580999998
  5.4865983419999997  0.5781592581000000  0.5781592581000000
  0.8161670892000000  1.6380279108000000  3.2703620891999998
  1.6380279108000000  3.2703620891999998  0.8161670892000000
  3.2703620891999998  0.8161670892000000  1.6380279108000000
  4.0922229108000003  4.0922229108000003  4.0922229108000003
  5.7245570891999993  1.6380279108000000  3.2703620891999998
  6.5464179107999998  3.2703620891999998  0.8161670892000000
  8.1787520891999996  0.8161670892000000  1.6380279108000000
  9.0006129107999993  4.0922229108000003  4.0922229108000003
